p tw 182 9101 1 
1 2 
1 3 
1 4 
1 5 
1 6 
1 7 
1 8 
1 9 
1 10 
1 11 
1 12 
1 13 
1 14 
1 15 
1 16 
1 17 
1 18 
1 19 
1 20 
1 21 
1 22 
1 23 
1 24 
1 25 
1 26 
1 27 
1 28 
1 29 
1 30 
1 31 
1 32 
1 33 
1 34 
1 35 
1 36 
1 37 
1 38 
1 39 
1 40 
1 41 
1 42 
1 43 
1 44 
1 45 
1 46 
1 47 
1 48 
1 49 
1 50 
1 51 
1 52 
1 53 
1 54 
1 55 
1 56 
1 57 
1 58 
1 59 
1 60 
1 61 
1 62 
1 63 
1 64 
1 65 
1 66 
1 67 
1 68 
1 69 
1 70 
1 71 
1 72 
1 73 
1 74 
1 75 
1 76 
1 77 
1 78 
1 79 
1 80 
1 81 
1 82 
1 83 
1 84 
1 85 
1 86 
1 87 
1 88 
1 89 
1 90 
1 91 
2 92 
2 93 
2 94 
2 95 
2 96 
2 97 
2 98 
2 99 
2 100 
2 101 
2 102 
2 103 
2 104 
2 105 
2 106 
2 107 
2 108 
2 109 
2 110 
2 111 
2 112 
2 113 
2 114 
2 115 
2 116 
2 117 
2 118 
2 119 
2 120 
2 121 
2 122 
2 123 
2 124 
2 125 
2 126 
2 127 
2 128 
2 129 
2 130 
2 131 
2 132 
2 133 
2 134 
2 135 
2 136 
2 137 
2 138 
2 139 
2 140 
2 141 
2 142 
2 143 
2 144 
2 145 
2 146 
2 147 
2 148 
2 149 
2 150 
2 151 
2 152 
2 153 
2 154 
2 155 
2 156 
2 157 
2 158 
2 159 
2 160 
2 161 
2 162 
2 163 
2 164 
2 165 
2 166 
2 167 
2 168 
2 169 
2 170 
2 171 
2 172 
2 173 
2 174 
2 175 
2 176 
2 177 
2 178 
2 179 
2 180 
2 181 
2 182 
1 93 
1 94 
1 95 
1 96 
1 97 
1 98 
1 99 
1 100 
1 101 
1 102 
2 92 
2 94 
2 103 
2 104 
2 105 
2 106 
2 107 
2 108 
2 109 
2 110 
3 92 
3 93 
3 111 
3 112 
3 113 
3 114 
3 115 
3 116 
3 117 
3 118 
4 92 
4 95 
4 128 
4 132 
4 145 
4 154 
4 161 
4 164 
4 166 
4 167 
5 92 
5 96 
5 119 
5 137 
5 141 
5 148 
5 172 
5 178 
5 179 
5 180 
6 92 
6 97 
6 122 
6 126 
6 138 
6 146 
6 155 
6 173 
6 176 
6 177 
7 92 
7 98 
7 123 
7 127 
7 133 
7 142 
7 149 
7 151 
7 152 
7 153 
8 92 
8 99 
8 124 
8 129 
8 134 
8 143 
8 159 
8 163 
8 168 
8 169 
9 92 
9 100 
9 120 
9 130 
9 135 
9 150 
9 156 
9 165 
9 170 
9 171 
10 92 
10 101 
10 121 
10 131 
10 139 
10 147 
10 157 
10 160 
10 181 
10 182 
11 92 
11 102 
11 125 
11 136 
11 140 
11 144 
11 158 
11 162 
11 174 
11 175 
12 93 
12 103 
12 131 
12 140 
12 146 
12 149 
12 163 
12 166 
12 170 
12 172 
13 93 
13 104 
13 119 
13 126 
13 145 
13 150 
13 151 
13 158 
13 159 
13 160 
14 93 
14 105 
14 123 
14 136 
14 156 
14 161 
14 168 
14 177 
14 179 
14 181 
15 93 
15 106 
15 122 
15 130 
15 132 
15 139 
15 141 
15 142 
15 143 
15 144 
16 93 
16 107 
16 125 
16 134 
16 137 
16 152 
16 157 
16 164 
16 171 
16 173 
17 93 
17 108 
17 120 
17 129 
17 133 
17 138 
17 162 
17 167 
17 180 
17 182 
18 93 
18 109 
18 121 
18 127 
18 135 
18 148 
18 154 
18 169 
18 174 
18 176 
19 93 
19 110 
19 124 
19 128 
19 147 
19 153 
19 155 
19 165 
19 175 
19 178 
20 94 
20 111 
20 131 
20 138 
20 142 
20 154 
20 159 
20 171 
20 175 
20 179 
21 94 
21 112 
21 120 
21 127 
21 136 
21 137 
21 143 
21 145 
21 146 
21 147 
22 94 
22 113 
22 123 
22 129 
22 132 
22 160 
22 165 
22 172 
22 173 
22 174 
23 94 
23 114 
23 122 
23 133 
23 140 
23 150 
23 164 
23 169 
23 178 
23 181 
24 94 
24 115 
24 125 
24 139 
24 148 
24 151 
24 155 
24 167 
24 168 
24 170 
25 94 
25 116 
25 119 
25 128 
25 144 
25 152 
25 156 
25 163 
25 176 
25 182 
26 94 
26 117 
26 121 
26 130 
26 134 
26 153 
26 158 
26 166 
26 177 
26 180 
27 94 
27 118 
27 124 
27 126 
27 135 
27 141 
27 149 
27 157 
27 161 
27 162 
28 95 
28 103 
28 111 
28 119 
28 120 
28 121 
28 122 
28 123 
28 124 
28 125 
29 95 
29 104 
29 112 
29 130 
29 133 
29 155 
29 157 
29 163 
29 174 
29 179 
30 95 
30 105 
30 113 
30 134 
30 138 
30 144 
30 147 
30 148 
30 149 
30 150 
31 95 
31 106 
31 114 
31 135 
31 146 
31 152 
31 160 
31 168 
31 175 
31 180 
32 95 
32 107 
32 115 
32 127 
32 140 
32 141 
32 159 
32 165 
32 177 
32 182 
33 95 
33 108 
33 116 
33 126 
33 136 
33 139 
33 153 
33 169 
33 171 
33 172 
34 95 
34 109 
34 117 
34 131 
34 143 
34 151 
34 156 
34 162 
34 173 
34 178 
35 95 
35 110 
35 118 
35 129 
35 137 
35 142 
35 158 
35 170 
35 176 
35 181 
36 96 
36 103 
36 112 
36 135 
36 144 
36 153 
36 159 
36 167 
36 173 
36 181 
37 97 
37 103 
37 113 
37 130 
37 137 
37 151 
37 161 
37 169 
37 175 
37 182 
38 98 
38 103 
38 114 
38 134 
38 139 
38 145 
38 162 
38 165 
38 176 
38 179 
39 99 
39 103 
39 115 
39 126 
39 142 
39 147 
39 156 
39 164 
39 174 
39 180 
40 100 
40 103 
40 116 
40 127 
40 132 
40 138 
40 157 
40 158 
40 168 
40 178 
41 101 
41 103 
41 117 
41 129 
41 136 
41 141 
41 150 
41 152 
41 154 
41 155 
42 102 
42 103 
42 118 
42 128 
42 133 
42 143 
42 148 
42 160 
42 171 
42 177 
43 96 
43 104 
43 111 
43 132 
43 147 
43 152 
43 162 
43 169 
43 170 
43 177 
44 97 
44 106 
44 111 
44 129 
44 140 
44 145 
44 148 
44 153 
44 156 
44 157 
45 98 
45 105 
45 111 
45 135 
45 143 
45 155 
45 158 
45 164 
45 172 
45 182 
46 99 
46 107 
46 111 
46 130 
46 136 
46 149 
46 160 
46 167 
46 176 
46 178 
47 100 
47 108 
47 111 
47 128 
47 134 
47 141 
47 146 
47 151 
47 174 
47 181 
48 101 
48 109 
48 111 
48 126 
48 133 
48 137 
48 144 
48 165 
48 166 
48 168 
49 102 
49 110 
49 111 
49 127 
49 139 
49 150 
49 161 
49 163 
49 173 
49 180 
50 96 
50 105 
50 114 
50 125 
50 126 
50 127 
50 128 
50 129 
50 130 
50 131 
51 96 
51 107 
51 113 
51 124 
51 133 
51 139 
51 146 
51 154 
51 156 
51 158 
52 96 
52 108 
52 115 
52 123 
52 143 
52 150 
52 157 
52 166 
52 175 
52 176 
53 96 
53 109 
53 116 
53 120 
53 134 
53 140 
53 142 
53 155 
53 160 
53 161 
54 96 
54 110 
54 117 
54 122 
54 145 
54 149 
54 168 
54 171 
54 174 
54 182 
55 96 
55 106 
55 118 
55 121 
55 136 
55 138 
55 151 
55 163 
55 164 
55 165 
56 97 
56 110 
56 115 
56 119 
56 131 
56 132 
56 133 
56 134 
56 135 
56 136 
57 100 
57 105 
57 115 
57 122 
57 137 
57 153 
57 154 
57 160 
57 162 
57 163 
58 101 
58 106 
58 115 
58 120 
58 128 
58 149 
58 158 
58 169 
58 173 
58 179 
59 98 
59 104 
59 115 
59 121 
59 129 
59 144 
59 146 
59 161 
59 171 
59 178 
60 102 
60 109 
60 115 
60 124 
60 130 
60 138 
60 145 
60 152 
60 172 
60 181 
61 97 
61 104 
61 116 
61 125 
61 143 
61 149 
61 154 
61 165 
61 180 
61 181 
62 99 
62 104 
62 117 
62 123 
62 128 
62 135 
62 137 
62 138 
62 139 
62 140 
63 101 
63 104 
63 118 
63 122 
63 127 
63 134 
63 156 
63 167 
63 172 
63 175 
64 102 
64 104 
64 113 
64 120 
64 131 
64 141 
64 153 
64 164 
64 168 
64 176 
65 100 
65 104 
65 114 
65 124 
65 136 
65 142 
65 148 
65 166 
65 173 
65 182 
66 102 
66 105 
66 117 
66 119 
66 142 
66 146 
66 157 
66 165 
66 167 
66 169 
67 97 
67 105 
67 118 
67 120 
67 139 
67 152 
67 159 
67 166 
67 174 
67 178 
68 101 
68 105 
68 112 
68 124 
68 132 
68 140 
68 151 
68 171 
68 176 
68 180 
69 99 
69 105 
69 116 
69 121 
69 133 
69 141 
69 145 
69 170 
69 173 
69 175 
70 97 
70 109 
70 114 
70 123 
70 141 
70 147 
70 158 
70 163 
70 167 
70 171 
71 97 
71 107 
71 112 
71 121 
71 128 
71 142 
71 150 
71 162 
71 168 
71 172 
72 97 
72 108 
72 117 
72 124 
72 127 
72 144 
72 160 
72 164 
72 170 
72 179 
73 98 
73 106 
73 116 
73 124 
73 131 
73 137 
73 150 
73 167 
73 174 
73 177 
74 98 
74 107 
74 117 
74 120 
74 126 
74 132 
74 148 
74 163 
74 175 
74 181 
75 100 
75 106 
75 117 
75 125 
75 133 
75 147 
75 159 
75 161 
75 172 
75 176 
76 99 
76 106 
76 113 
76 119 
76 127 
76 155 
76 162 
76 166 
76 171 
76 181 
77 102 
77 106 
77 112 
77 123 
77 126 
77 134 
77 154 
77 170 
77 178 
77 182 
78 100 
78 107 
78 118 
78 123 
78 131 
78 144 
78 145 
78 155 
78 169 
78 180 
79 102 
79 108 
79 114 
79 121 
79 132 
79 137 
79 149 
79 155 
79 156 
79 159 
80 99 
80 110 
80 114 
80 120 
80 144 
80 151 
80 154 
80 157 
80 172 
80 177 
81 101 
81 107 
81 114 
81 119 
81 138 
81 143 
81 153 
81 161 
81 170 
81 174 
82 102 
82 107 
82 116 
82 122 
82 129 
82 135 
82 147 
82 151 
82 166 
82 179 
83 101 
83 108 
83 113 
83 125 
83 135 
83 142 
83 145 
83 163 
83 177 
83 178 
84 101 
84 110 
84 116 
84 123 
84 130 
84 146 
84 148 
84 159 
84 162 
84 164 
85 98 
85 109 
85 113 
85 122 
85 128 
85 136 
85 157 
85 159 
85 170 
85 180 
86 98 
86 110 
86 112 
86 125 
86 138 
86 141 
86 156 
86 160 
86 166 
86 169 
87 98 
87 108 
87 118 
87 119 
87 130 
87 140 
87 147 
87 154 
87 168 
87 173 
88 99 
88 108 
88 112 
88 122 
88 131 
88 148 
88 152 
88 158 
88 161 
88 165 
89 99 
89 109 
89 118 
89 125 
89 132 
89 146 
89 150 
89 153 
89 179 
89 182 
90 100 
90 109 
90 112 
90 119 
90 129 
90 139 
90 149 
90 164 
90 175 
90 177 
91 100 
91 110 
91 113 
91 121 
91 126 
91 140 
91 143 
91 152 
91 167 
91 179 
